data;
set Index := 1 2 3 4;

param Revenue :=
    1 90
    2 55
    3 63
    4 47;

param RH :=
    1 10
    2 1
    3 0
    4 0;

param ConstraintCoeff :
    
       1 2 3  4:=
    1  7 2 8  3
    2  0 0 1  1
    3 -1 0 1  0
    4  0 -1 0 1   ;
    
    